Version identifier: 22.1.0.0 | 2022-03-09 | 1a383f8ce
CPXPARAM_Threads                                 1
CPXPARAM_MIP_Strategy_VariableSelect             3
CPXPARAM_TimeLimit                               599.99997469899995
1 of 1 MIP starts provided solutions.
MIP start 'm1' defined initial solution with objective 35.0000.
Tried aggregator 2 times.
MIP Presolve eliminated 43 rows and 1 columns.
MIP Presolve added 36 rows and 9 columns.
MIP Presolve modified 75 coefficients.
Aggregator did 9 substitutions.
Reduced MIP has 2705 rows, 6300 columns, and 97591 nonzeros.
Reduced MIP has 6300 binaries, 0 generals, 0 SOSs, and 0 indicators.
Presolve time = 0.14 sec. (204.43 ticks)
Probing time = 0.02 sec. (15.65 ticks)
Tried aggregator 1 time.
Detecting symmetries...
MIP Presolve modified 17 coefficients.
Reduced MIP has 2705 rows, 6300 columns, and 97836 nonzeros.
Reduced MIP has 6300 binaries, 0 generals, 0 SOSs, and 0 indicators.
Presolve time = 0.10 sec. (152.22 ticks)
Probing time = 0.02 sec. (15.68 ticks)
Clique table members: 2090.
MIP emphasis: balance optimality and feasibility.
MIP search method: dynamic search.
Parallel mode: none, using 1 thread.
Root relaxation solution time = 1.24 sec. (1380.73 ticks)

        Nodes                                         Cuts/
   Node  Left     Objective  IInf  Best Integer    Best Bound    ItCnt     Gap

*     0+    0                           35.0000    45150.0000              --- 
      0     0      300.0000  1300       35.0000      300.0000     4738  757.14%
*     0+    0                          154.0000      300.0000            94.81%
      0     0      300.0000   439      154.0000      Cuts: 20     6603   94.81%
      0     0      300.0000   143      154.0000    Cliques: 1     7300   94.81%
      0     0      300.0000   320      154.0000      Cuts: 46     8989   94.81%
*     0+    0                          289.0000      300.0000             3.81%
      0     0        cutoff            289.0000      300.0000     8989    3.81%
      0     0      300.0000   194      289.0000      Cuts: 14    10268    3.81%
      0     0      300.0000   320      289.0000      Cuts: 24    10961    3.81%
Detecting symmetries...
*     0+    0                          300.0000      300.0000             0.00%
      0     0        cutoff            300.0000      300.0000    10961    0.00%
      0     0        cutoff            300.0000      300.0000    10961    0.00%
Elapsed time = 41.06 sec. (41394.21 ticks, tree = 0.01 MB, solutions = 4)

Clique cuts applied:  28
Zero-half cuts applied:  11

Root node processing (before b&c):
  Real time             =   41.06 sec. (41394.54 ticks)
Sequential b&c:
  Real time             =    0.00 sec. (0.00 ticks)
                          ------------
Total (root+branch&cut) =   41.06 sec. (41394.54 ticks)
Primal:	300
Dual:	300
Status:	Optimal
Time:	41.06
Sequence:
	19
	0
	4
	2
	6
	13
	2
	3
	19
	4
	0
	15
	8
	0
	15
	1
	17
	7
	9
	16
	2
	18
	5
	16
	15
	1
	16
	15
	1
	17
	7
	9
	16
	7
	9
	16
	15
	1
	17
	5
	1
	12
	5
	3
	19
	0
	5
	19
	0
	4
	19
	0
	2
	18
	6
	0
	15
	1
	17
	7
	9
	16
	15
	1
	17
	7
	1
	16
	15
	1
	16
	15
	1
	17
	7
	9
	16
	5
	9
	12
	5
	10
	12
	5
	9
	16
	2
	18
	17
	3
	15
	10
	6
	15
	0
	14
	18
	3
	17
	18
	3
	17
	18
	3
	17
	18
	2
	6
	13
	2
	6
	13
	5
	6
	13
	4
	14
	13
	2
	6
	18
	3
	17
	18
	3
	14
	13
	4
	14
	13
	5
	14
	13
	3
	14
	13
	3
	14
	13
	2
	6
	10
	11
	6
	10
	11
	6
	10
	11
	6
	10
	11
	5
	8
	11
	4
	8
	5
	11
	8
	4
	11
	8
	4
	11
	8
	4
	11
	8
	2
	7
	17
	1
	15
	16
	9
	7
	17
	1
	15
	16
	9
	7
	17
	1
	15
	0
	8
	15
	0
	8
	15
	0
	14
	18
	5
	16
	18
	3
	17
	18
	3
	14
	0
	4
	8
	11
	4
	8
	11
	4
	8
	3
	11
	8
	4
	11
	8
	2
	0
	19
	4
	0
	19
	5
	0
	19
	3
	0
	19
	5
	0
	19
	5
	0
	19
	4
	0
	19
	5
	3
	17
	18
	2
	16
	18
	3
	17
	7
	1
	17
	7
	1
	17
	7
	9
	4
	12
	9
	5
	6
	10
	11
	6
	10
	11
	6
	10
	11
	6
	10
	11
	6
	2
	13
	14
	4
	13
	6
	2
	13
	14
	4
	13
	14
	4
	9
	12
	2
	10
	12
	5
	9
	12
	5
	9
	12
	4
	9
	12
